instances/p1/p1_15_13-0.dzn
Alphabet = {A,C,G,T};
ns = 15;
nc = 13;
neighbours = [| I(C),I(G),I(C),I(A),I(C),I(A),I(A),I(C),I(C),I(A),I(A),I(A),I(A) | I(C),I(A),I(C),I(C),I(A),I(C),I(A),I(A),I(C),I(A),I(A),I(C),I(A) | I(A),I(A),I(C),I(A),I(A),I(A),I(A),I(A),I(C),I(A),I(C),I(A),I(A) | I(A),I(A),I(A),I(A),I(C),I(A),I(A),I(A),I(A),I(C),I(C),I(A),I(A) | I(C),I(A),I(A),I(A),I(A),I(A),I(A),I(C),I(A),I(A),I(C),I(A),I(A) | I(A),I(C),I(A),I(C),I(A),I(C),I(A),I(A),I(A),I(A),I(A),I(C),I(A) | I(A),I(A),I(C),I(A),I(A),I(T),I(G),I(C),I(G),I(A),I(C),I(C),I(A) | I(A),I(A),I(A),I(A),I(A),I(A),I(A),I(A),I(C),I(A),I(A),I(A),I(C) | I(A),I(A),I(C),I(A),I(C),I(A),I(C),I(A),I(A),I(C),I(A),I(A),I(A) | I(A),I(A),I(A),I(C),I(C),I(A),I(A),I(A),I(A),I(A),I(A),I(A),I(A) | I(A),I(A),I(A),I(A),I(A),I(A),I(C),I(A),I(A),I(C),I(C),I(A),I(A) | I(A),I(A),I(A),I(C),I(A),I(C),I(A),I(A),I(C),I(A),I(C),I(A),I(A) | I(A),I(A),I(A),I(C),I(A),I(A),I(A),I(A),I(A),I(A),I(C),I(C),I(A) | I(C),I(C),I(A),I(C),I(C),I(C),I(C),I(G),I(A),I(A),I(A),I(C),I(A) | I(A),I(A),I(A),I(A),I(A),I(A),I(A),I(A),I(A),I(A),I(A),I(A),I(C) |];
