instances/benchmark/p1_15_13-0.txt
{
	"num_strings": 15,
	"alphabet": "ACGT",
	"strings": [
		"CGCACAACCAAAA",
		"CACCACAACAACA",
		"AACAAAAACACAA",
		"AAAACAAAACCAA",
		"CAAAAAACAACAA",
		"ACACACAAAAACA",
		"AACAATGCGACCA",
		"AAAAAAAACAAAC",
		"AACACACAACAAA",
		"AAACCAAAAAAAA",
		"AAAAAACAACCAA",
		"AAACACAACACAA",
		"AAACAAAAAACCA",
		"CCACCCCGAAACA",
		"AAAAAAAAAAAAC"
	],
	"str_length":[13,13,13,13,13,13,13,13,13,13,13,13,13,13,13]
}